NAME : pr439
COMMENT : 439-city
TYPE : TOUR
DIMENSION : 439
TOUR_LENGTH : 115418
ERROR : 0.0764897
TOUR_SECTION
229
280
281
225
226
228
227
282
283
343
438
434
435
436
437
433
402
407
408
410
409
424
425
423
426
429
432
431
421
422
411
412
406
405
413
420
419
418
388
389
378
379
375
376
352
354
355
357
369
384
385
400
399
414
415
430
428
427
417
416
404
403
401
387
386
377
368
367
366
365
364
363
362
361
360
359
338
337
336
335
334
333
332
299
298
297
296
295
294
293
278
277
276
275
274
273
272
223
222
221
220
219
238
237
236
235
234
233
232
271
270
269
268
267
266
305
304
303
301
300
302
329
331
330
328
327
326
325
324
323
322
321
320
319
318
317
316
314
315
253
254
255
256
257
258
313
312
311
310
259
260
261
262
309
308
307
306
263
264
265
239
218
217
216
240
241
242
243
244
245
246
247
248
251
252
208
250
249
209
210
211
212
213
214
215
197
198
199
200
201
202
204
205
206
207
170
171
172
173
203
174
160
161
162
163
164
165
169
167
168
166
132
131
130
129
127
98
124
122
123
125
126
128
133
134
135
136
121
100
97
96
95
94
99
93
92
91
101
68
67
17
18
19
20
21
23
22
24
63
64
65
66
71
70
69
90
89
88
87
106
105
104
103
112
113
102
114
116
119
120
118
117
115
138
137
157
158
159
175
176
177
196
195
194
180
179
178
156
155
139
140
141
151
142
149
150
152
153
154
181
182
193
192
191
183
190
189
184
144
147
146
145
143
107
108
111
110
109
73
72
62
28
26
25
27
29
30
61
31
16
15
14
13
12
11
39
10
9
8
7
6
5
4
3
0
2
1
51
50
49
47
46
48
45
44
42
40
43
41
38
37
36
35
34
33
32
59
60
74
75
86
85
77
76
58
57
56
78
79
80
81
55
54
53
52
82
83
84
185
148
186
187
188
224
230
231
279
284
285
286
287
288
289
290
291
292
358
356
353
351
350
349
348
347
345
346
344
339
373
374
380
390
391
398
395
396
397
392
394
393
383
381
382
371
370
372
342
341
340
-1
EOF
